p edge 8 797 
e 1 1 0
e 1 2 2
e 1 4 3
e 1 5 1
e 2 1 2
e 2 2 0
e 2 4 9
e 2 6 7
e 2 7 1
e 3 3 0
e 3 5 1
e 3 6 1
e 4 1 3
e 4 2 9
e 4 4 0
e 4 8 9
e 5 1 1
e 5 3 1
e 5 5 0
e 5 8 7
e 6 2 7
e 6 3 1
e 6 6 0
e 6 7 1
e 6 8 8
e 7 2 1
e 7 5 2
e 7 6 1
e 7 7 0
e 8 4 9
e 8 5 7
e 8 6 8
e 8 8 0
